p cnf 10 25
10 6 -2 0
10 5 3 0
10 -5 1 0
-10 3 -1 0
-9 8 6 0
9 7 6 0
9 -7 5 0
-9 -6 -2 0
-9 -6 -1 0
-9 4 3 0
9 -3 1 0
-8 6 -3 0
-8 5 3 0
8 -5 2 0
8 -5 -2 0
8 -3 -1 0
8 3 -1 0
7 6 4 0
7 6 1 0
-7 5 -1 0
-7 -4 -1 0
-6 -3 2 0
-6 2 -1 0
-5 -4 -2 0
5 -2 -1 0
